p cnf 58 710
-1 2 0
-1 3 0
-1 -4 0
-1 -5 0
-1 6 0
-1 -7 0
-1 8 0
-1 9 0
-1 10 0
-1 -11 0
-1 -12 0
-1 13 0
-1 14 0
-1 -15 0
-1 -16 0
-1 -17 0
-18 19 0
-18 20 0
-18 -21 0
-18 -22 0
-18 23 0
-18 -24 0
-18 25 0
-18 26 0
-18 27 0
-18 -28 0
-18 -29 0
-18 30 0
-18 31 0
-18 -32 0
-18 -33 0
-18 -34 0
1 18 0
35 36 37 38 39 40 0
41 42 43 44 45 46 47 48 49 50 0
-35 2 -51 0
-35 -2 51 0
-35 3 -53 0
-35 -3 53 0
-35 4 -52 0
-35 -4 52 0
-35 5 -54 0
-35 -5 54 0
-35 6 -51 0
-35 -6 51 0
-35 7 -53 0
-35 -7 53 0
-35 8 -52 0
-35 -8 52 0
-35 9 -54 0
-35 -9 54 0
-35 10 -51 0
-35 -10 51 0
-35 11 -53 0
-35 -11 53 0
-35 12 -52 0
-35 -12 52 0
-35 13 -54 0
-35 -13 54 0
-35 14 -51 0
-35 -14 51 0
-35 15 -53 0
-35 -15 53 0
-35 16 -52 0
-35 -16 52 0
-35 17 -54 0
-35 -17 54 0
-36 2 -51 0
-36 -2 51 0
-36 3 -53 0
-36 -3 53 0
-36 4 -51 0
-36 -4 51 0
-36 5 -53 0
-36 -5 53 0
-36 6 -52 0
-36 -6 52 0
-36 7 -54 0
-36 -7 54 0
-36 8 -52 0
-36 -8 52 0
-36 9 -54 0
-36 -9 54 0
-36 10 -51 0
-36 -10 51 0
-36 11 -53 0
-36 -11 53 0
-36 12 -51 0
-36 -12 51 0
-36 13 -53 0
-36 -13 53 0
-36 14 -52 0
-36 -14 52 0
-36 15 -54 0
-36 -15 54 0
-36 16 -52 0
-36 -16 52 0
-36 17 -54 0
-36 -17 54 0
-37 2 -51 0
-37 -2 51 0
-37 3 -51 0
-37 -3 51 0
-37 4 -53 0
-37 -4 53 0
-37 5 -53 0
-37 -5 53 0
-37 6 -52 0
-37 -6 52 0
-37 7 -52 0
-37 -7 52 0
-37 8 -54 0
-37 -8 54 0
-37 9 -54 0
-37 -9 54 0
-37 10 -51 0
-37 -10 51 0
-37 11 -51 0
-37 -11 51 0
-37 12 -53 0
-37 -12 53 0
-37 13 -53 0
-37 -13 53 0
-37 14 -52 0
-37 -14 52 0
-37 15 -52 0
-37 -15 52 0
-37 16 -54 0
-37 -16 54 0
-37 17 -54 0
-37 -17 54 0
-38 2 -51 0
-38 -2 51 0
-38 3 -53 0
-38 -3 53 0
-38 4 -51 0
-38 -4 51 0
-38 5 -53 0
-38 -5 53 0
-38 6 -51 0
-38 -6 51 0
-38 7 -53 0
-38 -7 53 0
-38 8 -51 0
-38 -8 51 0
-38 9 -53 0
-38 -9 53 0
-38 10 -52 0
-38 -10 52 0
-38 11 -54 0
-38 -11 54 0
-38 12 -52 0
-38 -12 52 0
-38 13 -54 0
-38 -13 54 0
-38 14 -52 0
-38 -14 52 0
-38 15 -54 0
-38 -15 54 0
-38 16 -52 0
-38 -16 52 0
-38 17 -54 0
-38 -17 54 0
-39 2 -51 0
-39 -2 51 0
-39 3 -51 0
-39 -3 51 0
-39 4 -53 0
-39 -4 53 0
-39 5 -53 0
-39 -5 53 0
-39 6 -51 0
-39 -6 51 0
-39 7 -51 0
-39 -7 51 0
-39 8 -53 0
-39 -8 53 0
-39 9 -53 0
-39 -9 53 0
-39 10 -52 0
-39 -10 52 0
-39 11 -52 0
-39 -11 52 0
-39 12 -54 0
-39 -12 54 0
-39 13 -54 0
-39 -13 54 0
-39 14 -52 0
-39 -14 52 0
-39 15 -52 0
-39 -15 52 0
-39 16 -54 0
-39 -16 54 0
-39 17 -54 0
-39 -17 54 0
-40 2 -51 0
-40 -2 51 0
-40 3 -51 0
-40 -3 51 0
-40 4 -51 0
-40 -4 51 0
-40 5 -51 0
-40 -5 51 0
-40 6 -53 0
-40 -6 53 0
-40 7 -53 0
-40 -7 53 0
-40 8 -53 0
-40 -8 53 0
-40 9 -53 0
-40 -9 53 0
-40 10 -52 0
-40 -10 52 0
-40 11 -52 0
-40 -11 52 0
-40 12 -52 0
-40 -12 52 0
-40 13 -52 0
-40 -13 52 0
-40 14 -54 0
-40 -14 54 0
-40 15 -54 0
-40 -15 54 0
-40 16 -54 0
-40 -16 54 0
-40 17 -54 0
-40 -17 54 0
-41 19 -55 0
-41 -19 55 0
-41 20 -57 0
-41 -20 57 0
-41 21 -56 0
-41 -21 56 0
-41 22 -58 0
-41 -22 58 0
-41 23 -55 0
-41 -23 55 0
-41 24 -57 0
-41 -24 57 0
-41 25 -56 0
-41 -25 56 0
-41 26 -58 0
-41 -26 58 0
-41 27 -55 0
-41 -27 55 0
-41 28 -57 0
-41 -28 57 0
-41 29 -56 0
-41 -29 56 0
-41 30 -58 0
-41 -30 58 0
-41 31 -55 0
-41 -31 55 0
-41 32 -57 0
-41 -32 57 0
-41 33 -56 0
-41 -33 56 0
-41 34 -58 0
-41 -34 58 0
-42 19 -55 0
-42 -19 55 0
-42 20 -57 0
-42 -20 57 0
-42 21 -55 0
-42 -21 55 0
-42 22 -57 0
-42 -22 57 0
-42 23 -56 0
-42 -23 56 0
-42 24 -58 0
-42 -24 58 0
-42 25 -56 0
-42 -25 56 0
-42 26 -58 0
-42 -26 58 0
-42 27 -55 0
-42 -27 55 0
-42 28 -57 0
-42 -28 57 0
-42 29 -55 0
-42 -29 55 0
-42 30 -57 0
-42 -30 57 0
-42 31 -56 0
-42 -31 56 0
-42 32 -58 0
-42 -32 58 0
-42 33 -56 0
-42 -33 56 0
-42 34 -58 0
-42 -34 58 0
-43 19 -55 0
-43 -19 55 0
-43 20 -55 0
-43 -20 55 0
-43 21 -57 0
-43 -21 57 0
-43 22 -57 0
-43 -22 57 0
-43 23 -56 0
-43 -23 56 0
-43 24 -56 0
-43 -24 56 0
-43 25 -58 0
-43 -25 58 0
-43 26 -58 0
-43 -26 58 0
-43 27 -55 0
-43 -27 55 0
-43 28 -55 0
-43 -28 55 0
-43 29 -57 0
-43 -29 57 0
-43 30 -57 0
-43 -30 57 0
-43 31 -56 0
-43 -31 56 0
-43 32 -56 0
-43 -32 56 0
-43 33 -58 0
-43 -33 58 0
-43 34 -58 0
-43 -34 58 0
-44 19 -55 0
-44 -19 55 0
-44 20 -57 0
-44 -20 57 0
-44 21 -55 0
-44 -21 55 0
-44 22 -57 0
-44 -22 57 0
-44 23 -55 0
-44 -23 55 0
-44 24 -57 0
-44 -24 57 0
-44 25 -55 0
-44 -25 55 0
-44 26 -57 0
-44 -26 57 0
-44 27 -56 0
-44 -27 56 0
-44 28 -58 0
-44 -28 58 0
-44 29 -56 0
-44 -29 56 0
-44 30 -58 0
-44 -30 58 0
-44 31 -56 0
-44 -31 56 0
-44 32 -58 0
-44 -32 58 0
-44 33 -56 0
-44 -33 56 0
-44 34 -58 0
-44 -34 58 0
-45 19 -55 0
-45 -19 55 0
-45 20 -55 0
-45 -20 55 0
-45 21 -57 0
-45 -21 57 0
-45 22 -57 0
-45 -22 57 0
-45 23 -55 0
-45 -23 55 0
-45 24 -55 0
-45 -24 55 0
-45 25 -57 0
-45 -25 57 0
-45 26 -57 0
-45 -26 57 0
-45 27 -56 0
-45 -27 56 0
-45 28 -56 0
-45 -28 56 0
-45 29 -58 0
-45 -29 58 0
-45 30 -58 0
-45 -30 58 0
-45 31 -56 0
-45 -31 56 0
-45 32 -56 0
-45 -32 56 0
-45 33 -58 0
-45 -33 58 0
-45 34 -58 0
-45 -34 58 0
-46 19 -55 0
-46 -19 55 0
-46 20 -55 0
-46 -20 55 0
-46 21 -55 0
-46 -21 55 0
-46 22 -55 0
-46 -22 55 0
-46 23 -57 0
-46 -23 57 0
-46 24 -57 0
-46 -24 57 0
-46 25 -57 0
-46 -25 57 0
-46 26 -57 0
-46 -26 57 0
-46 27 -56 0
-46 -27 56 0
-46 28 -56 0
-46 -28 56 0
-46 29 -56 0
-46 -29 56 0
-46 30 -56 0
-46 -30 56 0
-46 31 -58 0
-46 -31 58 0
-46 32 -58 0
-46 -32 58 0
-46 33 -58 0
-46 -33 58 0
-46 34 -58 0
-46 -34 58 0
-47 19 -55 2 0
-47 19 -56 -2 0
-47 -19 55 2 0
-47 -19 56 -2 0
-47 20 -57 3 0
-47 20 -58 -3 0
-47 -20 57 3 0
-47 -20 58 -3 0
-47 21 -55 4 0
-47 21 -56 -4 0
-47 -21 55 4 0
-47 -21 56 -4 0
-47 22 -57 5 0
-47 22 -58 -5 0
-47 -22 57 5 0
-47 -22 58 -5 0
-47 23 -55 6 0
-47 23 -56 -6 0
-47 -23 55 6 0
-47 -23 56 -6 0
-47 24 -57 7 0
-47 24 -58 -7 0
-47 -24 57 7 0
-47 -24 58 -7 0
-47 25 -55 8 0
-47 25 -56 -8 0
-47 -25 55 8 0
-47 -25 56 -8 0
-47 26 -57 9 0
-47 26 -58 -9 0
-47 -26 57 9 0
-47 -26 58 -9 0
-47 27 -55 10 0
-47 27 -56 -10 0
-47 -27 55 10 0
-47 -27 56 -10 0
-47 28 -57 11 0
-47 28 -58 -11 0
-47 -28 57 11 0
-47 -28 58 -11 0
-47 29 -55 12 0
-47 29 -56 -12 0
-47 -29 55 12 0
-47 -29 56 -12 0
-47 30 -57 13 0
-47 30 -58 -13 0
-47 -30 57 13 0
-47 -30 58 -13 0
-47 31 -55 14 0
-47 31 -56 -14 0
-47 -31 55 14 0
-47 -31 56 -14 0
-47 32 -57 15 0
-47 32 -58 -15 0
-47 -32 57 15 0
-47 -32 58 -15 0
-47 33 -55 16 0
-47 33 -56 -16 0
-47 -33 55 16 0
-47 -33 56 -16 0
-47 34 -57 17 0
-47 34 -58 -17 0
-47 -34 57 17 0
-47 -34 58 -17 0
-48 19 -55 2 0
-48 19 -56 -2 0
-48 -19 55 2 0
-48 -19 56 -2 0
-48 20 -55 3 0
-48 20 -56 -3 0
-48 -20 55 3 0
-48 -20 56 -3 0
-48 21 -57 4 0
-48 21 -58 -4 0
-48 -21 57 4 0
-48 -21 58 -4 0
-48 22 -57 5 0
-48 22 -58 -5 0
-48 -22 57 5 0
-48 -22 58 -5 0
-48 23 -55 6 0
-48 23 -56 -6 0
-48 -23 55 6 0
-48 -23 56 -6 0
-48 24 -55 7 0
-48 24 -56 -7 0
-48 -24 55 7 0
-48 -24 56 -7 0
-48 25 -57 8 0
-48 25 -58 -8 0
-48 -25 57 8 0
-48 -25 58 -8 0
-48 26 -57 9 0
-48 26 -58 -9 0
-48 -26 57 9 0
-48 -26 58 -9 0
-48 27 -55 10 0
-48 27 -56 -10 0
-48 -27 55 10 0
-48 -27 56 -10 0
-48 28 -55 11 0
-48 28 -56 -11 0
-48 -28 55 11 0
-48 -28 56 -11 0
-48 29 -57 12 0
-48 29 -58 -12 0
-48 -29 57 12 0
-48 -29 58 -12 0
-48 30 -57 13 0
-48 30 -58 -13 0
-48 -30 57 13 0
-48 -30 58 -13 0
-48 31 -55 14 0
-48 31 -56 -14 0
-48 -31 55 14 0
-48 -31 56 -14 0
-48 32 -55 15 0
-48 32 -56 -15 0
-48 -32 55 15 0
-48 -32 56 -15 0
-48 33 -57 16 0
-48 33 -58 -16 0
-48 -33 57 16 0
-48 -33 58 -16 0
-48 34 -57 17 0
-48 34 -58 -17 0
-48 -34 57 17 0
-48 -34 58 -17 0
-49 19 -55 2 0
-49 19 -56 -2 0
-49 -19 55 2 0
-49 -19 56 -2 0
-49 20 -55 3 0
-49 20 -56 -3 0
-49 -20 55 3 0
-49 -20 56 -3 0
-49 21 -55 4 0
-49 21 -56 -4 0
-49 -21 55 4 0
-49 -21 56 -4 0
-49 22 -55 5 0
-49 22 -56 -5 0
-49 -22 55 5 0
-49 -22 56 -5 0
-49 23 -57 6 0
-49 23 -58 -6 0
-49 -23 57 6 0
-49 -23 58 -6 0
-49 24 -57 7 0
-49 24 -58 -7 0
-49 -24 57 7 0
-49 -24 58 -7 0
-49 25 -57 8 0
-49 25 -58 -8 0
-49 -25 57 8 0
-49 -25 58 -8 0
-49 26 -57 9 0
-49 26 -58 -9 0
-49 -26 57 9 0
-49 -26 58 -9 0
-49 27 -55 10 0
-49 27 -56 -10 0
-49 -27 55 10 0
-49 -27 56 -10 0
-49 28 -55 11 0
-49 28 -56 -11 0
-49 -28 55 11 0
-49 -28 56 -11 0
-49 29 -55 12 0
-49 29 -56 -12 0
-49 -29 55 12 0
-49 -29 56 -12 0
-49 30 -55 13 0
-49 30 -56 -13 0
-49 -30 55 13 0
-49 -30 56 -13 0
-49 31 -57 14 0
-49 31 -58 -14 0
-49 -31 57 14 0
-49 -31 58 -14 0
-49 32 -57 15 0
-49 32 -58 -15 0
-49 -32 57 15 0
-49 -32 58 -15 0
-49 33 -57 16 0
-49 33 -58 -16 0
-49 -33 57 16 0
-49 -33 58 -16 0
-49 34 -57 17 0
-49 34 -58 -17 0
-49 -34 57 17 0
-49 -34 58 -17 0
-50 19 -55 2 0
-50 19 -56 -2 0
-50 -19 55 2 0
-50 -19 56 -2 0
-50 20 -55 3 0
-50 20 -56 -3 0
-50 -20 55 3 0
-50 -20 56 -3 0
-50 21 -55 4 0
-50 21 -56 -4 0
-50 -21 55 4 0
-50 -21 56 -4 0
-50 22 -55 5 0
-50 22 -56 -5 0
-50 -22 55 5 0
-50 -22 56 -5 0
-50 23 -55 6 0
-50 23 -56 -6 0
-50 -23 55 6 0
-50 -23 56 -6 0
-50 24 -55 7 0
-50 24 -56 -7 0
-50 -24 55 7 0
-50 -24 56 -7 0
-50 25 -55 8 0
-50 25 -56 -8 0
-50 -25 55 8 0
-50 -25 56 -8 0
-50 26 -55 9 0
-50 26 -56 -9 0
-50 -26 55 9 0
-50 -26 56 -9 0
-50 27 -57 10 0
-50 27 -58 -10 0
-50 -27 57 10 0
-50 -27 58 -10 0
-50 28 -57 11 0
-50 28 -58 -11 0
-50 -28 57 11 0
-50 -28 58 -11 0
-50 29 -57 12 0
-50 29 -58 -12 0
-50 -29 57 12 0
-50 -29 58 -12 0
-50 30 -57 13 0
-50 30 -58 -13 0
-50 -30 57 13 0
-50 -30 58 -13 0
-50 31 -57 14 0
-50 31 -58 -14 0
-50 -31 57 14 0
-50 -31 58 -14 0
-50 32 -57 15 0
-50 32 -58 -15 0
-50 -32 57 15 0
-50 -32 58 -15 0
-50 33 -57 16 0
-50 33 -58 -16 0
-50 -33 57 16 0
-50 -33 58 -16 0
-50 34 -57 17 0
-50 34 -58 -17 0
-50 -34 57 17 0
-50 -34 58 -17 0
52 53 54 0
52 -53 -54 0
-52 53 -54 0
56 57 58 0
56 -57 -58 0
-56 57 -58 0
1 47 48 49 50 0
18 0
-35 -47 0
-35 -48 0
-36 -47 0
-36 -49 0
-37 -48 0
-37 -49 0
-38 -47 0
-38 -50 0
-39 -48 0
-39 -50 0
-40 -49 0
-40 -50 0
-36 -41 0
-37 -41 0
-37 -42 0
-38 -41 0
-38 -42 0
-38 -43 0
-39 -41 0
-39 -42 0
-39 -43 0
-39 -44 0
-40 -41 0
-40 -42 0
-40 -43 0
-40 -44 0
-40 -45 0
